c status 288 1469274561560
c status 197 1469274561579
c status 179 1469274563170
c status 176 1469274563340
c status 172 1469274565476
c status 171 1469274565768
c status 166 1469274567628
s td 89 166 352
b 1 233 239 120
b 2 111 110 175 23 122 55 60 179 18 19 112 177 178 21 119 20 117 56 115 54 173 116 118 123 174 161 26 29 344 348 210 92 346 345 42 99 160 159 156 306 308 157 155 41 104 4 311 316 46 48 329 202 63 154 299 182 180 295 5 350 317 165 313 66 163 67 136 65 191 315 319 183 153 43 296 301 57 192 44 207 193 97 181 185 1 321 196 201 200 204 206 208 107 198 195 15 203 194 343 333
b 3 110 175 23 122 55 60 179 18 19 112 177 178 21 119 20 117 56 115 54 173 116 118 123 174 161 26 29 344 348 210 92 346 345 42 99 160 159 156 306 308 157 155 41 104 4 311 316 46 48 329 202 63 154 299 182 180 295 5 350 317 165 313 66 163 67 136 65 191 315 319 183 153 43 296 301 57 192 44 207 193 97 181 185 1 321 196 205 201 200 204 206 208 107 198 195 15 203 194 343 333
b 4 175 23 122 55 60 22 179 18 19 112 177 178 21 119 20 117 56 115 54 173 59 116 118 123 174 351 161 7 26 29 344 348 210 92 25 346 345 42 99 160 159 156 306 308 157 155 41 342 104 4 311 316 46 48 329 258 202 63 236 247 154 299 182 180 295 5 350 317 37 165 313 66 163 62 67 136 151 65 191 315 319 183 153 43 296 301 57 192 291 44 207 193 97 132 181 185 1 321 196 205 201 200 204 206 208 107 198 195 121 352 15 203 194 343 197 333
b 5 289 23 55 178 119 20 54 173 116 118 161 159 299 294 295 290 293 300 292 153 296 301 291 207 204 194
b 6 189 18 21 115 54 118 174 160 46 48 151 152 196
b 7 23 122 55 60 22 179 18 19 112 177 178 21 119 20 117 56 115 54 173 59 116 118 123 174 351 161 7 26 29 344 348 210 92 25 346 345 42 99 160 159 156 306 308 157 155 41 342 104 341 4 311 316 46 48 329 303 38 40 258 202 63 236 247 154 299 182 14 180 294 295 6 5 147 350 317 302 37 165 313 66 163 134 124 62 67 136 151 290 293 300 292 65 191 315 319 183 153 43 296 301 57 52 192 291 44 64 207 193 97 132 181 185 1 321 196 205 201 200 204 206 208 107 198 195 121 352 15 203 194 343 197 333
b 8 122 55 60 22 179 18 19 112 177 178 21 119 20 117 56 115 54 173 59 116 118 123 174 351 161 7 24 26 29 344 348 210 92 25 346 345 42 99 160 159 156 306 308 157 155 41 342 104 341 4 311 316 46 48 329 303 38 40 36 47 258 202 63 213 225 236 247 154 299 182 14 180 294 295 6 5 147 350 317 302 37 165 313 323 66 163 134 124 62 67 136 151 290 293 300 49 292 65 191 131 315 129 319 183 153 43 296 301 57 51 52 192 291 44 64 207 310 193 97 132 181 185 1 321 196 205 201 200 204 206 208 107 198 195 121 352 15 203 194 343 197 333
b 9 55 60 22 179 18 19 112 177 178 21 119 20 117 56 115 54 173 59 116 118 123 174 351 161 7 24 26 28 29 344 348 210 92 25 346 345 42 99 160 159 156 306 308 157 155 41 342 104 341 4 311 316 46 48 314 329 303 38 40 36 47 258 202 63 213 225 236 247 154 299 182 14 169 180 349 294 295 6 5 147 350 317 302 37 165 313 323 66 163 134 124 62 67 136 151 290 293 300 49 292 65 191 131 315 129 319 183 153 43 296 301 57 51 52 192 291 44 64 207 310 193 97 132 181 185 1 321 196 205 201 200 204 206 208 107 198 195 121 352 15 203 194 343 197 333
b 10 60 22 179 18 19 112 177 178 21 119 20 117 56 115 54 173 59 116 118 123 174 351 161 7 24 26 28 29 344 348 210 92 25 346 345 42 99 160 159 156 306 308 157 155 41 342 104 341 4 311 316 46 48 314 336 329 312 303 162 38 40 36 47 258 202 63 213 225 236 247 154 299 182 14 169 180 349 294 295 6 5 147 350 317 302 37 165 313 130 323 66 163 134 124 62 67 136 151 290 293 300 49 292 65 191 158 131 315 129 319 183 335 153 43 296 301 57 51 52 192 133 291 44 64 207 310 193 97 132 181 185 1 125 321 196 205 201 200 204 206 208 107 198 195 121 352 15 203 194 343 197 333
b 11 179 18 19 112 177 178 21 119 20 117 56 115 54 173 59 116 118 123 174 351 161 7 24 26 28 29 344 348 210 92 25 346 345 42 99 160 159 156 306 308 157 155 90 41 342 104 341 4 311 316 46 48 314 336 329 312 303 162 38 40 36 47 258 202 63 213 225 236 247 190 154 299 182 14 169 180 349 294 295 6 5 147 350 317 302 37 165 313 130 323 66 163 134 124 62 67 136 151 290 293 300 49 292 65 191 158 131 315 129 319 183 335 153 43 296 301 57 51 52 192 334 133 291 44 64 207 310 193 97 132 181 185 1 125 321 196 205 201 200 204 206 208 107 198 195 121 352 15 203 194 343 197 333
b 12 18 19 112 177 178 21 119 20 117 56 115 54 173 59 116 118 123 174 351 161 7 24 26 28 29 344 348 210 92 25 346 345 42 99 160 159 156 306 308 157 155 90 41 342 104 341 4 311 316 46 48 314 336 329 312 303 162 38 40 36 47 258 202 63 213 225 236 247 190 154 299 182 14 169 180 349 294 295 6 5 147 350 317 302 37 165 313 130 323 66 163 134 124 62 67 136 151 290 293 300 49 292 65 191 158 131 315 129 319 183 335 153 43 296 301 57 51 52 192 334 133 291 44 64 207 310 193 97 132 181 152 185 1 125 321 196 205 201 200 204 206 208 107 198 195 121 352 15 203 194 343 197 333
b 13 19 112 177 178 21 119 20 117 56 115 54 173 59 116 118 123 174 351 161 7 24 26 28 29 344 348 210 92 25 346 345 42 99 160 159 156 306 308 157 155 90 41 342 104 341 4 311 316 46 48 314 336 329 312 303 162 38 40 36 47 258 202 63 213 225 236 247 190 154 299 126 182 14 169 180 349 294 295 6 5 147 350 317 302 37 165 313 130 323 66 163 134 124 62 67 136 151 290 293 300 49 292 65 191 158 131 315 129 319 183 335 153 43 296 301 57 51 52 192 334 133 291 44 64 207 310 193 97 132 181 152 185 1 125 321 196 205 201 200 204 206 208 107 198 195 121 352 15 203 194 343 197 333
b 14 112 177 178 21 119 20 117 56 115 54 173 59 116 118 123 174 351 161 7 24 26 28 29 344 348 210 92 25 346 345 42 99 160 159 156 306 308 157 307 155 90 41 342 104 341 4 311 316 46 48 314 336 329 312 303 162 38 40 36 47 113 258 202 63 213 225 236 247 190 154 299 126 182 14 169 180 349 294 295 6 5 147 350 317 302 37 165 313 130 323 66 163 134 124 62 67 136 151 290 293 300 49 292 65 191 158 131 315 129 319 183 335 153 43 304 296 301 57 51 52 192 334 133 291 44 64 207 310 193 97 132 181 152 185 1 125 321 196 205 201 200 204 206 208 107 198 195 121 352 15 203 194 343 197 333
b 15 177 178 21 119 20 117 56 115 54 173 59 116 118 123 174 351 161 7 24 26 28 29 344 348 210 92 25 346 345 42 99 160 159 156 306 308 157 307 155 90 41 342 104 341 4 311 316 46 48 314 336 329 312 303 162 38 40 36 47 113 258 202 63 213 225 236 247 190 154 299 126 182 14 169 180 349 294 295 6 5 147 350 317 302 37 165 313 130 323 66 163 134 124 62 67 136 151 290 293 300 49 292 65 191 158 131 315 129 319 183 335 153 43 304 296 301 57 51 52 192 334 133 291 44 64 207 310 193 97 132 181 152 185 1 125 321 140 196 205 201 200 204 206 208 107 198 195 121 352 15 203 194 343 197 333
b 16 58 69 21 119 20 117 56 115 54 173 59 116 118 123 174 161 24 26 29 25 160 156 41 342 36 47 91 114 14 331 62 49 65 43 51 64 201 200 206 198 197
b 17 69 21 119 20 117 56 115 54 173 59 116 118 123 174 161 24 26 29 25 160 156 41 342 36 47 80 91 102 114 14 331 62 49 65 43 51 64 201 200 206 198 197
b 18 21 119 20 117 56 115 54 173 59 116 118 123 174 351 161 7 24 26 28 29 344 348 210 92 25 346 345 42 99 160 159 156 306 308 157 307 155 90 41 342 104 341 4 311 316 46 48 314 336 329 312 303 162 38 40 36 47 80 91 102 114 113 258 202 63 213 225 236 247 190 154 299 126 182 14 331 169 180 349 294 295 6 5 147 350 317 302 37 165 313 130 323 66 163 134 124 62 67 136 151 290 293 300 49 292 65 191 158 131 315 129 128 319 183 335 153 43 304 296 301 57 51 52 192 334 133 291 44 64 207 310 193 97 132 181 152 185 1 125 321 140 196 205 201 200 204 206 208 107 198 195 3 121 352 15 203 194 343 197 333
b 19 119 20 117 56 115 54 173 59 116 118 123 174 351 161 7 24 26 28 29 344 348 210 92 25 346 345 42 99 160 159 156 306 308 157 307 155 90 41 342 104 341 4 311 316 46 48 314 336 329 312 303 162 38 40 36 47 80 91 102 114 113 258 202 63 213 225 236 247 190 154 299 126 182 14 331 169 180 349 294 295 6 5 147 350 317 302 37 165 313 130 323 66 163 134 124 62 67 136 151 290 293 300 49 292 65 191 158 131 315 129 128 319 183 335 153 43 304 296 301 57 51 52 192 334 133 291 44 64 207 310 193 97 132 181 152 185 1 125 321 140 196 205 201 200 204 206 208 107 198 195 3 121 85 352 15 203 194 343 197 333
b 20 117 56 115 54 173 59 116 118 123 174 351 161 7 24 26 28 29 344 348 210 92 25 346 345 42 99 160 159 156 306 308 157 307 155 98 90 41 342 104 341 4 311 316 46 48 314 336 329 312 303 162 38 40 36 47 80 91 102 114 113 258 202 63 213 225 236 247 190 154 299 126 182 14 331 169 180 349 294 295 6 5 147 350 317 302 37 165 322 313 130 323 66 163 134 124 62 67 136 151 290 293 300 49 292 65 191 158 131 315 129 128 319 183 335 153 43 304 296 301 57 51 52 192 334 133 291 44 64 207 310 193 97 132 181 152 185 1 125 321 140 196 205 201 200 204 206 208 107 198 195 3 121 85 352 15 203 194 343 197 333
b 21 56 115 54 173 59 116 118 123 174 351 161 7 24 26 28 29 344 348 210 92 25 346 345 42 99 160 159 156 306 308 157 307 155 98 90 41 342 104 341 4 311 316 46 48 314 336 329 312 303 162 38 40 36 47 80 91 102 114 113 258 202 63 213 225 236 247 190 154 299 126 182 14 331 169 180 349 294 295 6 5 147 350 317 302 37 338 165 322 313 130 323 66 163 134 124 62 67 136 151 290 293 300 49 292 65 191 158 131 315 129 128 319 183 335 153 43 304 296 301 57 51 52 192 334 133 291 44 64 207 310 193 97 132 181 152 185 1 125 297 321 50 140 196 205 201 200 204 206 208 107 198 195 3 121 85 352 15 203 194 343 197 333
b 22 115 54 173 59 116 118 123 174 351 161 7 24 26 28 29 81 344 348 210 92 25 346 345 42 99 160 159 156 306 308 157 307 155 98 90 41 342 104 341 4 311 316 46 48 314 336 337 329 312 303 330 162 38 40 36 47 80 91 102 114 113 258 202 63 213 225 236 247 190 154 299 126 182 14 331 169 180 349 294 295 6 5 147 350 317 302 37 338 165 322 313 130 323 66 163 134 124 62 67 136 151 290 293 300 49 292 65 191 158 131 315 129 128 319 183 335 153 43 304 296 301 57 51 52 192 334 133 291 44 64 207 310 193 97 132 181 152 185 1 125 297 321 50 140 196 205 201 200 204 206 208 107 198 195 3 121 85 352 15 203 194 343 197 333
b 23 116 118 123 174 351 161 7 24 26 28 29 81 344 348 210 92 25 346 345 42 99 160 159 156 306 308 157 307 155 98 90 41 342 104 341 4 311 316 46 48 314 336 337 329 312 303 330 162 38 40 36 47 80 91 102 114 113 258 202 63 213 225 236 247 190 154 299 126 182 14 331 169 180 349 294 295 6 5 147 350 317 302 37 338 165 322 313 130 323 66 163 134 124 62 67 136 151 290 293 300 49 292 65 191 158 131 315 129 128 319 183 335 153 43 304 296 301 57 51 52 192 334 133 291 44 64 207 310 193 97 132 181 152 185 1 125 297 321 50 140 196 205 201 200 204 206 208 107 198 195 3 61 121 85 352 15 203 194 343 197 333
b 24 105 17 166 86 95 93 100 89 96 16 88 82 106 109 167 170 12 84 108 13 101 103 171 351 7 81 348 92 346 345 42 99 308 307 98 90 41 104 341 4 87 311 46 48 94 312 303 330 332 169 180 349 294 6 5 147 350 136 290 300 292 191 158 304 301 192 334 291 193 196 205 201 200 204 206 198 195 203 194 197
b 25 168 17 166 86 95 340 93 100 89 96 16 88 82 106 109 167 84 108 13 101 103 351 7 81 344 348 92 25 346 345 99 156 306 308 157 307 155 98 90 104 341 4 87 311 46 48 94 150 149 312 303 330 162 332 331 169 180 349 6 147 350 302 165 163 292 191 158 153 304 192 291 44 193 120 188 196 205 201 200 204 206 198 195 203 194 197
b 26 17 166 86 95 340 93 100 89 96 16 88 82 106 109 167 170 12 84 108 83 172 13 101 103 171 351 7 24 26 28 29 81 344 348 92 25 346 345 42 99 156 306 308 157 307 155 98 90 41 104 341 4 87 311 46 48 94 336 150 149 312 303 330 162 332 14 331 169 180 349 294 6 5 147 350 302 338 165 163 136 290 300 292 191 158 153 304 301 192 334 291 44 193 120 188 196 205 201 200 204 206 198 195 203 194 197
b 27 166 86 95 340 93 100 89 96 16 88 82 106 109 167 170 12 84 108 83 172 13 101 103 171 351 7 24 26 28 29 81 344 348 92 25 346 345 42 99 156 306 308 157 307 155 98 90 41 342 104 341 4 87 311 46 48 94 336 150 149 312 303 330 162 332 14 331 169 180 349 294 6 5 147 350 302 338 165 163 136 290 300 292 191 158 153 43 304 301 192 334 291 44 193 120 188 196 205 201 200 204 206 198 195 203 194 197
b 28 339 288 347 95 340 96 88 109 167 84 103 171 210 346 42 41 311 300 292 291 205
b 29 86 95 340 93 100 89 96 16 88 82 106 109 167 170 12 84 108 83 172 13 101 103 171 351 7 24 26 28 29 81 344 348 92 25 346 345 42 99 156 306 308 157 307 155 98 90 41 342 104 341 4 87 311 46 48 94 336 150 149 312 303 330 162 332 14 331 169 180 349 294 6 5 147 350 302 53 338 165 163 136 290 300 292 191 158 153 43 304 301 52 192 334 291 44 207 193 120 188 196 205 201 200 204 206 198 195 203 194 197
b 30 95 340 93 100 89 96 16 88 82 106 109 167 170 12 84 108 83 172 13 101 103 171 351 7 24 26 28 29 81 344 348 210 92 25 346 345 42 99 156 306 308 157 307 155 98 90 41 342 104 341 4 87 311 46 48 94 336 150 149 312 303 330 162 332 14 331 169 180 349 294 6 5 147 350 302 53 338 165 163 136 290 300 292 191 158 285 153 43 304 301 52 192 334 291 44 207 193 120 188 1 196 205 201 200 204 206 208 198 195 203 194 197
b 31 96 16 88 82 106 109 167 170 12 84 108 83 172 13 101 103 171 351 7 24 26 28 29 81 344 348 210 92 25 346 345 42 99 156 306 308 157 307 155 98 90 41 342 104 341 4 87 311 46 48 94 336 150 149 312 303 330 162 332 80 91 14 331 169 180 349 294 6 5 147 350 302 53 338 165 163 136 290 300 292 191 158 285 153 43 304 301 52 192 334 291 44 207 193 120 188 1 196 205 201 200 204 206 208 198 195 203 194 197
b 32 170 12 84 108 83 172 13 101 103 171 351 161 7 24 26 28 29 81 344 348 210 92 25 346 345 42 99 160 159 156 306 308 157 307 155 98 90 41 342 104 341 4 87 311 46 48 94 336 150 149 312 303 330 162 332 80 91 154 14 331 169 180 349 294 6 5 147 350 302 53 338 165 163 136 151 290 300 292 191 158 285 153 43 304 301 52 192 334 291 44 207 193 120 188 1 196 205 201 200 204 206 208 198 195 203 194 197
b 33 351 161 7 24 26 28 29 81 344 348 210 92 25 346 345 42 99 160 159 156 306 308 157 307 155 98 90 41 342 104 341 4 87 311 316 46 48 94 314 336 150 149 337 329 312 303 330 162 332 38 40 36 47 80 91 102 114 113 258 202 63 213 225 236 247 190 154 299 126 182 14 331 169 180 349 294 295 6 5 147 350 317 302 37 53 338 165 322 313 130 323 66 163 134 124 62 67 136 151 290 293 300 49 292 65 191 158 131 315 129 128 319 285 183 335 153 43 304 296 301 57 51 52 192 334 133 291 44 64 207 310 193 97 132 181 152 185 120 188 1 125 297 321 50 140 196 205 201 200 204 206 208 107 198 195 3 61 121 85 352 15 203 194 343 197 333
b 34 210 92 25 346 345 42 99 160 159 156 306 308 157 307 155 98 90 41 342 104 341 4 87 311 316 46 48 94 314 336 150 149 337 329 312 303 330 162 332 38 40 36 47 80 91 102 114 113 258 202 63 213 225 236 247 190 154 299 126 182 14 331 169 180 349 294 295 6 5 147 350 317 302 37 53 338 165 322 313 130 323 66 163 134 124 62 67 136 151 290 293 300 49 292 65 191 158 131 315 129 128 319 285 183 335 153 43 304 296 301 57 51 52 192 334 133 291 44 64 207 310 193 97 132 181 152 185 120 188 1 125 297 321 50 140 176 196 205 201 200 204 206 208 107 198 195 3 61 121 85 352 15 203 194 343 197 333
b 35 306 308 157 307 155 98 90 41 342 104 341 4 87 311 316 46 48 94 305 314 336 150 149 337 329 312 303 330 162 332 38 40 36 47 80 91 102 114 113 258 202 63 213 225 236 247 190 154 299 126 182 14 331 169 180 349 294 295 6 5 147 350 317 302 37 53 338 165 322 313 130 323 66 163 134 124 62 67 136 151 290 293 300 49 292 65 191 158 131 315 129 128 319 285 183 335 153 43 304 296 301 57 51 52 192 334 133 291 44 64 207 310 193 97 132 181 152 185 120 188 1 125 297 321 50 140 176 196 205 201 200 204 206 208 107 198 195 3 61 121 85 352 15 203 194 343 197 333
b 36 9 11 8 10 45 71 75 135 127 68 72 138 146 224 4 46 48 149 330 202 63 213 236 154 299 126 180 294 295 147 37 165 322 130 323 163 134 124 62 290 300 65 131 315 129 128 319 43 301 51 192 133 291 44 64 207 286 193 125 196 201 200 204 206 198 352 203 194 343 197 333
b 37 11 8 10 45 71 75 135 127 68 72 138 146 224 4 46 48 149 330 202 63 213 236 154 299 126 180 294 295 147 37 53 165 322 130 323 163 134 124 62 290 300 65 131 315 129 128 319 43 296 301 51 52 192 133 291 44 64 207 286 193 125 196 201 200 204 206 208 198 352 203 194 343 197 333
b 38 280 269 283 135 127 30 32 68 72 202 213 225 236 247 126 169 180 147 302 37 62 136 49 191 158 51 133 206 208
b 39 284 269 283 8 10 34 35 287 79 142 144 68 72 141 77 138 146 224 202 63 213 225 236 247 169 180 147 37 53 165 136 191 158 43 296 52 44 207 196 201 200 198 203
b 40 269 283 8 10 34 35 287 135 127 30 32 79 142 144 68 72 141 77 138 146 224 258 202 63 213 225 236 247 126 169 180 147 302 37 53 165 62 136 49 191 158 43 296 51 52 133 44 207 196 201 200 206 208 198 203
b 41 8 10 34 35 287 45 71 75 135 127 70 74 30 32 79 142 144 68 72 141 77 138 146 148 224 4 46 48 305 149 329 330 258 202 63 213 225 236 247 154 299 126 169 180 294 295 147 302 37 53 165 322 313 130 323 66 163 134 124 62 136 151 290 300 49 65 191 158 131 315 129 128 319 43 304 296 301 57 51 52 192 133 291 44 64 207 310 286 193 125 196 205 201 200 204 206 208 198 195 352 203 194 343 197 333
b 42 31 33 298 78 139 34 35 287 71 75 135 127 70 74 30 32 68 77 138 146 148 224 150 337 329 312 40 102 114 202 63 213 225 236 126 349 295 6 5 147 350 317 302 37 53 165 322 313 130 323 66 163 134 124 62 49 65 191 158 129 319 335 153 43 51 52 192 133 44 64 207 27 181 125 297 321 196 205 201 200 204 206 208 198 352 15 203 194 343 333
b 43 33 298 78 139 34 35 287 71 75 135 127 70 74 30 32 68 72 77 138 146 148 224 150 337 329 312 40 102 114 202 63 213 225 236 154 126 14 331 169 349 295 6 5 147 350 317 302 37 53 165 322 313 130 323 66 163 134 124 62 136 49 65 191 158 129 319 335 153 43 51 52 192 133 44 64 207 27 181 125 297 321 196 205 201 200 204 206 208 198 195 3 352 15 203 194 343 197 333
b 44 76 309 320 298 78 145 139 34 35 287 71 75 70 74 30 32 79 142 144 68 72 141 77 138 146 148 224 87 46 48 94 330 38 36 47 102 114 113 202 63 213 225 236 154 299 302 53 165 62 151 300 49 65 43 51 52 44 193 186 185 188 125 321 196 205 201 200 204 206 39 208 198 195 15 203 194
b 45 309 320 298 78 145 139 34 35 287 45 71 75 70 74 30 32 79 142 144 68 72 141 77 138 146 148 224 87 46 48 94 330 38 36 47 80 91 102 114 113 258 202 63 213 225 236 247 154 299 302 53 165 313 62 151 300 49 65 315 285 43 51 52 44 64 2 193 186 185 188 125 321 196 205 201 200 204 206 39 208 198 195 15 203 194 197
b 46 298 78 325 145 139 34 35 287 45 71 75 135 127 70 74 30 32 79 142 144 68 72 141 77 138 146 148 224 87 46 48 94 150 337 329 312 330 38 40 36 47 80 91 102 114 113 258 202 63 213 225 236 247 154 299 126 14 331 169 349 294 295 6 5 147 350 317 302 37 53 165 322 313 130 323 66 163 134 124 62 67 136 151 293 300 49 292 65 191 158 315 129 319 285 335 153 43 296 301 51 52 192 334 133 44 64 207 2 193 27 181 186 185 188 125 297 321 196 205 201 200 204 206 39 208 198 195 3 352 15 203 194 343 197 333
b 47 78 325 145 139 34 35 287 45 71 75 135 127 70 74 30 32 79 142 144 68 72 141 77 138 146 148 224 87 46 48 94 150 337 329 312 330 38 40 36 47 80 91 102 114 113 258 202 63 213 225 236 247 154 299 126 14 331 169 349 294 295 6 5 147 350 317 302 37 53 165 322 313 130 323 66 163 134 124 62 67 136 151 293 300 49 292 65 191 158 315 129 319 285 335 153 43 296 301 51 52 192 334 133 44 64 207 2 193 27 181 186 185 188 125 297 321 50 196 205 201 200 204 206 39 208 198 195 3 61 352 15 203 194 343 197 333
b 48 143 137 324 318 326 327 325 145 139 142 144 141 138 146 148 314 336 337 303 162 299 182 294 295 317 130 66 163 285 43 301 51 192 334 291 44 64 207 2 193 73 125 140 196 201 200 206 39 208 194 343 333
b 49 328 324 318 326 327 325 145 142 311 316 329 317 302 323 151 315 319 207 286 3 203
b 50 137 324 318 326 327 325 145 139 70 142 144 72 141 138 146 148 314 336 337 303 162 299 182 294 295 317 165 130 66 163 65 285 43 301 51 192 334 291 44 64 207 2 193 73 125 140 196 201 200 206 39 208 194 343 197 333
b 51 324 318 326 327 325 145 139 71 75 70 142 144 72 141 138 146 148 224 311 316 314 336 337 329 312 303 162 154 299 182 294 295 317 302 165 322 130 323 66 163 67 151 293 49 292 65 315 129 319 285 43 301 51 192 334 291 44 64 207 310 2 286 193 73 125 297 140 196 205 201 200 204 206 39 208 195 3 203 194 343 197 333
b 52 326 327 325 145 139 71 75 70 142 144 72 141 138 146 148 224 311 316 314 336 337 329 312 303 162 154 299 182 294 295 317 302 338 165 322 130 323 66 163 67 151 293 49 292 65 315 129 128 319 285 335 43 301 51 192 334 291 44 64 207 310 2 286 193 73 125 297 140 196 205 201 200 204 206 39 208 195 3 203 194 343 197 333
b 53 327 325 145 139 71 75 70 142 144 72 141 138 146 148 224 311 316 314 336 149 337 329 312 303 162 332 154 299 182 294 295 317 302 338 165 322 313 130 323 66 163 67 151 293 49 292 65 131 315 129 128 319 285 335 43 304 301 51 192 334 291 44 64 207 310 2 286 193 73 125 297 140 196 205 201 200 204 206 39 208 195 3 203 194 343 197 333
b 54 184 139 71 72 146 224 336 337 53 300 183 27 73 50 176 39 61 85 352 15 343 333
b 55 325 145 139 34 35 287 45 71 75 135 127 70 74 30 32 79 142 144 68 72 141 77 138 146 148 224 87 311 316 46 48 94 314 336 150 149 337 329 312 303 330 162 332 38 40 36 47 80 91 102 114 113 258 202 63 213 225 236 247 154 299 126 182 14 331 169 349 294 295 6 5 147 350 317 302 37 53 338 165 322 313 130 323 66 163 134 124 62 67 136 151 293 300 49 292 65 191 158 131 315 129 128 319 285 335 153 43 304 296 301 51 52 192 334 133 291 44 64 207 310 2 286 193 27 73 181 186 185 188 125 297 321 50 140 196 205 201 200 204 206 39 208 198 195 3 61 352 15 203 194 343 197 333
b 56 145 139 34 35 287 45 71 75 135 127 70 74 30 32 79 142 144 68 72 141 77 138 146 148 224 87 311 316 46 48 94 314 336 150 149 337 329 312 303 330 162 332 38 40 36 47 80 91 102 114 113 258 202 63 213 225 236 247 154 299 126 182 14 331 169 349 294 295 6 5 147 350 317 302 37 53 338 165 322 313 130 323 66 163 134 124 62 67 136 151 293 300 49 292 65 191 158 131 315 129 128 319 285 335 153 43 304 296 301 51 52 192 334 133 291 44 64 207 310 2 286 193 27 73 181 186 185 188 1 125 297 321 50 140 196 205 201 200 204 206 39 208 198 195 3 61 352 15 203 194 343 197 333
b 57 139 34 35 287 45 71 75 135 127 70 74 30 32 79 142 144 68 72 141 77 138 146 148 224 87 311 316 46 48 94 314 336 150 149 337 329 312 303 330 162 332 38 40 36 47 80 91 102 114 113 258 202 63 213 225 236 247 154 299 126 182 14 331 169 349 294 295 6 5 147 350 317 302 37 53 338 165 322 313 130 323 66 163 134 124 62 67 136 151 290 293 300 49 292 65 191 158 131 315 129 128 319 285 183 335 153 43 304 296 301 51 52 192 334 133 291 44 64 207 310 2 286 193 27 73 181 186 185 188 1 125 297 321 50 140 176 196 205 201 200 204 206 39 208 198 195 3 61 85 352 15 203 194 343 197 333
b 58 34 35 287 45 71 75 135 127 70 74 30 32 79 142 144 68 72 141 77 138 146 148 224 4 87 311 316 46 48 94 305 314 336 150 149 337 329 312 303 330 162 332 38 40 36 47 80 91 102 114 113 258 202 63 213 225 236 247 154 299 126 182 14 331 169 180 349 294 295 6 5 147 350 317 302 37 53 338 165 322 313 130 323 66 163 134 124 62 67 136 151 290 293 300 49 292 65 191 158 131 315 129 128 319 285 183 335 153 43 304 296 301 57 51 52 192 334 133 291 44 64 207 310 2 286 193 27 73 181 186 185 188 1 125 297 321 50 140 176 196 205 201 200 204 206 39 208 198 195 3 61 85 352 15 203 194 343 197 333
b 59 135 127 70 74 30 32 79 142 144 68 72 141 77 138 146 148 224 4 87 311 316 46 48 94 305 314 336 150 149 337 329 312 303 330 162 332 38 40 36 47 80 91 102 114 113 258 202 63 213 225 236 247 190 154 299 126 182 14 331 169 180 349 294 295 6 5 147 350 317 302 37 53 338 165 322 313 130 323 66 163 134 124 62 67 136 151 290 293 300 49 292 65 191 158 131 315 129 128 319 285 183 335 153 43 304 296 301 57 51 52 192 334 133 291 44 64 207 310 2 286 193 27 73 132 181 186 185 188 1 125 297 321 50 140 176 196 205 201 200 204 206 39 208 198 195 3 61 121 85 352 15 203 194 343 197 333
b 60 4 87 311 316 46 48 94 305 314 336 150 149 337 329 312 303 330 162 332 38 40 36 47 80 91 102 114 113 258 202 63 213 225 236 247 190 154 299 126 182 14 331 169 180 349 294 295 6 5 147 350 317 302 37 53 338 165 322 313 130 323 66 163 134 124 62 67 136 151 290 293 300 49 292 65 191 158 131 315 129 128 319 285 183 335 153 43 304 296 301 57 51 52 192 334 133 291 44 64 207 310 2 286 193 27 73 97 132 181 186 152 185 120 188 1 125 297 321 50 140 176 196 205 201 200 204 206 39 208 107 198 195 3 61 121 85 352 15 203 194 343 197 333
b 61 217 227 228 229 230 279 164 216 215 226 152
b 62 277 227 228 229 230 279 275 282 215 278 231 232 281 276 187 223 310 125 50 176 61 15 343
b 63 227 228 229 230 279 275 282 164 216 215 226 278 231 232 281 276 214 199 187 223 310 73 152 125 50 140 176 39 61 85 15 343
b 64 230 279 275 282 164 216 215 226 278 231 232 281 276 214 199 187 223 209 310 73 152 1 125 50 140 176 39 61 85 15 343
b 65 279 275 282 164 216 215 226 278 231 232 211 281 276 214 199 187 223 209 310 73 152 1 125 321 50 140 176 39 61 85 15 343
b 66 261 272 275 282 249 278 281 212 237 223 120
b 67 275 282 164 216 215 226 249 278 231 232 211 281 276 214 199 187 212 237 223 209 310 2 286 73 152 120 1 125 321 50 140 176 39 3 61 85 15 343 333
b 68 221 267 220 270 271 222 263 265 264 266 268 273 231 232 211 214 199 187 253 212 251 209 310 2 286 97 125 140 176 352 343 333
b 69 267 220 270 219 271 222 263 265 264 266 268 273 226 231 232 211 214 199 187 253 212 251 209 310 2 286 73 97 1 125 140 176 107 352 343 333
b 70 274 218 262 220 270 219 271 222 263 265 264 266 268 273 164 216 226 231 232 211 276 199 187 209 132 152 125 297 140 176 39 3 61 121 85 352 15 343 333
b 71 218 262 220 270 219 271 222 263 265 264 266 268 273 164 216 215 226 278 231 232 211 276 199 187 209 310 97 132 152 125 297 140 176 39 107 3 61 121 85 352 15 343 333
b 72 262 220 270 219 271 222 263 265 264 266 268 273 164 216 215 226 278 231 232 211 276 199 187 209 310 286 97 132 152 125 297 321 140 176 39 107 3 61 121 85 352 15 343 333
b 73 220 270 219 271 222 263 265 264 266 268 273 164 216 215 226 278 231 232 211 276 214 199 187 253 212 251 209 310 2 286 73 97 132 152 1 125 297 321 140 176 39 107 3 61 121 85 352 15 343 333
b 74 270 219 271 222 263 265 264 266 268 273 164 216 215 226 249 278 231 232 211 276 214 199 187 253 212 251 209 310 2 286 73 97 132 152 1 125 297 321 140 176 39 107 3 61 121 85 352 15 343 333
b 75 271 222 263 265 264 266 268 273 164 216 215 226 249 278 231 232 211 281 276 214 199 187 253 212 251 209 310 2 286 73 97 132 152 1 125 297 321 140 176 39 107 3 61 121 85 352 15 343 333
b 76 222 263 265 264 266 268 273 164 216 215 226 249 278 231 232 211 281 276 214 199 187 253 212 251 209 310 2 286 73 97 132 152 1 125 297 321 50 140 176 39 107 3 61 121 85 352 15 343 333
b 77 265 264 266 268 273 164 216 215 226 249 278 231 232 211 281 276 214 199 187 253 252 212 255 251 209 310 2 286 27 73 97 132 152 1 125 297 321 50 140 176 39 107 3 61 121 85 352 15 343 333
b 78 266 268 273 164 216 215 226 249 278 231 232 211 281 276 214 199 187 253 252 212 255 223 251 209 310 2 286 27 73 97 132 152 1 125 297 321 50 140 176 39 107 3 61 121 85 352 15 343 333
b 79 164 216 215 226 249 278 231 232 211 281 276 214 199 187 253 252 212 237 255 223 251 209 207 310 2 286 193 27 73 97 132 181 186 152 185 120 188 1 125 297 321 50 140 176 205 201 200 204 206 39 208 107 198 195 3 61 121 85 352 15 203 194 343 197 333
b 80 235 239 240 241 242 243 244 254 250 234 238 253 252 251 120
b 81 239 240 241 242 245 243 244 246 248 254 250 234 238 253 252 237 255 251 120
b 82 256 259 257 260 242 245 243 244 246 248 254 238 253 252 255 223 97 132 1 321 107 121 15 343 333
b 83 259 257 260 242 245 243 244 246 248 254 250 238 253 252 255 223 251 310 97 132 1 321 140 107 61 121 352 15 343 333
b 84 257 260 242 245 243 244 246 248 254 250 238 199 253 252 255 223 251 209 310 97 132 1 321 140 107 61 121 352 15 343 333
b 85 260 242 245 243 244 246 248 254 250 238 214 199 253 252 255 223 251 209 310 97 132 1 321 140 107 61 121 352 15 343 333
b 86 242 245 243 244 246 248 254 250 234 238 214 199 253 252 237 255 223 251 209 310 97 132 120 1 321 140 107 61 121 352 15 343 333
b 87 254 250 234 238 214 199 253 252 212 237 255 223 251 209 310 97 132 120 1 321 140 107 61 121 352 15 343 333
b 88 250 234 238 214 199 187 253 252 212 237 255 223 251 209 310 97 132 120 1 321 140 107 61 121 352 15 343 333
b 89 187 253 252 212 237 255 223 251 209 207 310 2 286 193 27 73 97 132 181 186 152 185 120 188 1 125 297 321 50 140 176 196 205 201 200 204 206 39 208 107 198 195 3 61 121 85 352 15 203 194 343 197 333
1 80
80 81
81 86
86 85
85 84
84 83
86 87
87 88
88 79
79 89
79 78
78 77
77 76
76 75
75 74
74 73
89 60
60 59
59 58
58 57
57 56
56 55
60 35
35 34
34 33
33 23
23 22
22 21
21 20
20 19
19 18
18 15
15 14
14 13
13 12
12 11
11 10
10 9
9 8
55 47
47 46
8 7
7 4
58 41
4 3
3 2
33 32
32 31
31 30
30 29
29 27
27 26
46 43
43 42
55 53
26 25
46 45
53 52
52 51
26 24
45 44
41 37
37 36
51 50
41 40
50 48
73 72
40 39
72 71
18 17
17 16
71 70
79 67
73 69
69 68
67 65
65 64
64 63
40 38
7 5
83 82
63 62
57 54
51 49
30 28
12 6
63 61
67 66
